
Gurobi 6.5.2 (win64) logging started 07/24/16 17:29:15


Gurobi 6.5.2 (win64) logging started 07/24/16 17:29:15

Optimize a model with 3274 rows, 759 columns and 8299 nonzeros
Coefficient statistics:
  Matrix range    [6e-08, 4e+02]
  Objective range [1e+00, 1e+00]
  Bounds range    [1e+00, 1e+00]
  RHS range       [6e-06, 2e+03]
Presolve removed 2629 rows and 102 columns
Presolve time: 0.02s
Presolved: 645 rows, 657 columns, 3159 nonzeros
Variable types: 285 continuous, 372 integer (372 binary)

Root relaxation: objective 1.861046e+01, 2041 iterations, 0.06 seconds

    Nodes    |    Current Node    |     Objective Bounds      |     Work
 Expl Unexpl |  Obj  Depth IntInf | Incumbent    BestBd   Gap | It/Node Time

     0     0   18.61046    0  105          -   18.61046      -     -    0s
H    0     0                     211.0813137   18.61046  91.2%     -    0s
     0     0   19.68364    0  103  211.08131   19.68364  90.7%     -    0s
H    0     0                      24.0621840   19.68364  18.2%     -    0s
H    0     0                      20.0310199   19.68364  1.73%     -    0s
     0     0   19.72515    0   92   20.03102   19.72515  1.53%     -    0s
     0     0   19.72515    0   81   20.03102   19.72515  1.53%     -    0s
     0     0   19.74619    0   70   20.03102   19.74619  1.42%     -    0s
     0     0   19.74619    0   72   20.03102   19.74619  1.42%     -    0s
     0     0   19.74619    0   72   20.03102   19.74619  1.42%     -    0s
     0     0   19.74619    0   72   20.03102   19.74619  1.42%     -    0s
     0     2   19.74619    0   64   20.03102   19.74619  1.42%     -    0s
H   27    21                      19.9885920   19.78591  1.01%  10.5    0s
*  142    91              19      19.9801635   19.81482  0.83%   7.5    0s
*  199   101              11      19.9581493   19.83301  0.63%   7.0    0s
*  583   201              14      19.9564377   19.84225  0.57%   6.1    0s
* 1245   233              11      19.9456345   19.88268  0.32%   5.8    0s

Cutting planes:
  Gomory: 1
  MIR: 16

Explored 1865 nodes (13736 simplex iterations) in 0.53 seconds
Thread count was 8 (of 8 available processors)

Optimal solution found (tolerance 1.00e-04)
Best objective 1.994563445045e+01, best bound 1.994467393928e+01, gap 0.0048%

Wrote requested result file 'H1\instance12\\Results12E_Sol6.lp'

